(set-logic QF_UF)
(declare-sort U 0)
(declare-sort I 0)
(declare-fun unit () I)
(declare-fun op (I I) I)
(declare-fun e5 () I)
(declare-fun e4 () I)
(declare-fun e3 () I)
(declare-fun e2 () I)
(declare-fun e1 () I)
(declare-fun e0 () I)
(assert (or (=> (and (= e5 (op e5 e0)) (= e0 (op e5 (op e5 e0)))) (= e5 (op e5 (op e5 e5)))) (=> (and (= e5 (op e5 e0)) (= e0 (op e5 (op e5 e0)))) (= e5 (op e5 (op e5 e5))))))
(assert (not (=> (and (= e5 (op e5 e0)) (= e0 (op e5 (op e5 e0)))) (= e5 (op e5 (op e5 e5))))))
(check-sat)
(exit)
